;; sequence(s): A28052
;; terms: 1 30 595 9900 149941 2145210 29561815 396813000 5224781881 67791656790 869540915035 11050958595300 139392712421821 1747306114774770 21788203659532255 270484281270892800
;; small program: loop(((loop(loop2((loop((2 + y) * x, 2, x) - x) + (y * y), y + y, y, 1, 2) + loop((2 + y) * x, 2, x), y, 1) + x) + x) + x, x, 1)
;; fast program: loop((loop(((loop((loop2(x * y, y, x, 1 + 2, 1 + 2) div 2) * loop(x * x, 1, loop(x + x, x, 1)), 1, y) + x) + x) + x, y, 1) + ((((x + x) * 2) + x) * 2)) + x, x, 1)
(set-logic UFNIA)
(define-fun divf ((a Int) (b Int)) Int (ite (< 0 b) (div a b) (div (- a) (- b))))
(declare-fun f3 (Int Int) Int)
(declare-fun g3 () Int)
(declare-fun h3 (Int) Int)
(declare-fun u3 (Int Int) Int)
(declare-fun v3 (Int) Int)
(declare-fun f2 (Int Int) Int)
(declare-fun g2 (Int Int) Int)
(declare-fun h2 (Int Int) Int)
(declare-fun i2 () Int)
(declare-fun j2 () Int)
(declare-fun u2 (Int Int Int) Int)
(declare-fun v2 (Int Int Int) Int)
(declare-fun w2 (Int Int) Int)
(declare-fun f4 (Int Int) Int)
(declare-fun g4 () Int)
(declare-fun h4 (Int) Int)
(declare-fun u4 (Int Int) Int)
(declare-fun v4 (Int) Int)
(declare-fun f1 (Int Int) Int)
(declare-fun g1 (Int Int) Int)
(declare-fun h1 () Int)
(declare-fun u1 (Int Int) Int)
(declare-fun v1 (Int Int) Int)
(declare-fun f0 (Int Int) Int)
(declare-fun g0 (Int) Int)
(declare-fun h0 () Int)
(declare-fun u0 (Int Int) Int)
(declare-fun v0 (Int) Int)
(declare-fun small (Int) Int)
(declare-fun f8 (Int Int) Int)
(declare-fun g8 (Int Int) Int)
(declare-fun h8 (Int) Int)
(declare-fun i8 () Int)
(declare-fun j8 () Int)
(declare-fun u8 (Int Int Int) Int)
(declare-fun v8 (Int Int Int) Int)
(declare-fun w8 (Int) Int)
(declare-fun f9 (Int) Int)
(declare-fun g9 () Int)
(declare-fun f10 (Int) Int)
(declare-fun g10 (Int) Int)
(declare-fun h10 () Int)
(declare-fun u10 (Int Int) Int)
(declare-fun v10 (Int) Int)
(declare-fun h9 (Int) Int)
(declare-fun u9 (Int Int) Int)
(declare-fun v9 (Int) Int)
(declare-fun f7 (Int) Int)
(declare-fun g7 () Int)
(declare-fun h7 (Int Int) Int)
(declare-fun u7 (Int Int) Int)
(declare-fun v7 (Int Int) Int)
(declare-fun f6 (Int Int) Int)
(declare-fun g6 (Int Int) Int)
(declare-fun h6 () Int)
(declare-fun u6 (Int Int) Int)
(declare-fun v6 (Int Int) Int)
(declare-fun f5 (Int Int) Int)
(declare-fun g5 (Int) Int)
(declare-fun h5 () Int)
(declare-fun u5 (Int Int) Int)
(declare-fun v5 (Int) Int)
(declare-fun fast (Int) Int)
(assert (forall ((x Int) (y Int)) (= (f3 x y) (* (+ 2 y) x))))
(assert (= g3 2))
(assert (forall ((x Int)) (= (h3 x) x)))
(assert (forall ((x Int) (y Int)) (= (u3 x y) (ite (<= x 0) y (f3 (u3 (- x 1) y) x)))))
(assert (forall ((x Int)) (= (v3 x) (u3 g3 (h3 x)))))
(assert (forall ((x Int) (y Int)) (= (f2 x y) (+ (- (v3 x) x) (* y y)))))
(assert (forall ((x Int) (y Int)) (= (g2 x y) (+ y y))))
(assert (forall ((x Int) (y Int)) (= (h2 x y) y)))
(assert (= i2 1))
(assert (= j2 2))
(assert (forall ((x Int) (y Int) (z Int)) (= (u2 x y z) (ite (<= x 0) y (f2 (u2 (- x 1) y z) (v2 (- x 1) y z))))))
(assert (forall ((x Int) (y Int) (z Int)) (= (v2 x y z) (ite (<= x 0) z (g2 (u2 (- x 1) y z) (v2 (- x 1) y z))))))
(assert (forall ((x Int) (y Int)) (= (w2 x y) (u2 (h2 x y) i2 j2))))
(assert (forall ((x Int) (y Int)) (= (f4 x y) (* (+ 2 y) x))))
(assert (= g4 2))
(assert (forall ((x Int)) (= (h4 x) x)))
(assert (forall ((x Int) (y Int)) (= (u4 x y) (ite (<= x 0) y (f4 (u4 (- x 1) y) x)))))
(assert (forall ((x Int)) (= (v4 x) (u4 g4 (h4 x)))))
(assert (forall ((x Int) (y Int)) (= (f1 x y) (+ (w2 x y) (v4 x)))))
(assert (forall ((x Int) (y Int)) (= (g1 x y) y)))
(assert (= h1 1))
(assert (forall ((x Int) (y Int)) (= (u1 x y) (ite (<= x 0) y (f1 (u1 (- x 1) y) x)))))
(assert (forall ((x Int) (y Int)) (= (v1 x y) (u1 (g1 x y) h1))))
(assert (forall ((x Int) (y Int)) (= (f0 x y) (+ (+ (+ (v1 x y) x) x) x))))
(assert (forall ((x Int)) (= (g0 x) x)))
(assert (= h0 1))
(assert (forall ((x Int) (y Int)) (= (u0 x y) (ite (<= x 0) y (f0 (u0 (- x 1) y) x)))))
(assert (forall ((x Int)) (= (v0 x) (u0 (g0 x) h0))))
(assert (forall ((x Int)) (= (small x) (v0 x))))
(assert (forall ((x Int) (y Int)) (= (f8 x y) (* x y))))
(assert (forall ((x Int) (y Int)) (= (g8 x y) y)))
(assert (forall ((x Int)) (= (h8 x) x)))
(assert (= i8 (+ 1 2)))
(assert (= j8 (+ 1 2)))
(assert (forall ((x Int) (y Int) (z Int)) (= (u8 x y z) (ite (<= x 0) y (f8 (u8 (- x 1) y z) (v8 (- x 1) y z))))))
(assert (forall ((x Int) (y Int) (z Int)) (= (v8 x y z) (ite (<= x 0) z (g8 (u8 (- x 1) y z) (v8 (- x 1) y z))))))
(assert (forall ((x Int)) (= (w8 x) (u8 (h8 x) i8 j8))))
(assert (forall ((x Int)) (= (f9 x) (* x x))))
(assert (= g9 1))
(assert (forall ((x Int)) (= (f10 x) (+ x x))))
(assert (forall ((x Int)) (= (g10 x) x)))
(assert (= h10 1))
(assert (forall ((x Int) (y Int)) (= (u10 x y) (ite (<= x 0) y (f10 (u10 (- x 1) y))))))
(assert (forall ((x Int)) (= (v10 x) (u10 (g10 x) h10))))
(assert (forall ((x Int)) (= (h9 x) (v10 x))))
(assert (forall ((x Int) (y Int)) (= (u9 x y) (ite (<= x 0) y (f9 (u9 (- x 1) y))))))
(assert (forall ((x Int)) (= (v9 x) (u9 g9 (h9 x)))))
(assert (forall ((x Int)) (= (f7 x) (* (divf (w8 x) 2) (v9 x)))))
(assert (= g7 1))
(assert (forall ((x Int) (y Int)) (= (h7 x y) y)))
(assert (forall ((x Int) (y Int)) (= (u7 x y) (ite (<= x 0) y (f7 (u7 (- x 1) y))))))
(assert (forall ((x Int) (y Int)) (= (v7 x y) (u7 g7 (h7 x y)))))
(assert (forall ((x Int) (y Int)) (= (f6 x y) (+ (+ (+ (v7 x y) x) x) x))))
(assert (forall ((x Int) (y Int)) (= (g6 x y) y)))
(assert (= h6 1))
(assert (forall ((x Int) (y Int)) (= (u6 x y) (ite (<= x 0) y (f6 (u6 (- x 1) y) x)))))
(assert (forall ((x Int) (y Int)) (= (v6 x y) (u6 (g6 x y) h6))))
(assert (forall ((x Int) (y Int)) (= (f5 x y) (+ (+ (v6 x y) (* (+ (* (+ x x) 2) x) 2)) x))))
(assert (forall ((x Int)) (= (g5 x) x)))
(assert (= h5 1))
(assert (forall ((x Int) (y Int)) (= (u5 x y) (ite (<= x 0) y (f5 (u5 (- x 1) y) x)))))
(assert (forall ((x Int)) (= (v5 x) (u5 (g5 x) h5))))
(assert (forall ((x Int)) (= (fast x) (v5 x))))
(assert (exists ((c Int)) (and (>= c 0) (not (= (small c) (fast c))))))
(check-sat)
